problem_generation/data/GISP/train/er_n=63_m=1185_p=0.60_SET2_setparam=100.00_alpha=0.50_433.lp
maximize
OBJ:100x0 + 100x1 + 100x2 + 100x3 + 100x4 + 100x5 + 100x6 + 100x7 + 100x8 + 100x9 + 100x10 + 100x11 + 100x12 + 100x13 + 100x14 + 100x15 + 100x16 + 100x17 + 100x18 + 100x19 + 100x20 + 100x21 + 100x22 + 100x23 + 100x24 + 100x25 + 100x26 + 100x27 + 100x28 + 100x29 + 100x30 + 100x31 + 100x32 + 100x33 + 100x34 + 100x35 + 100x36 + 100x37 + 100x38 + 100x39 + 100x40 + 100x41 + 100x42 + 100x43 + 100x44 + 100x45 + 100x46 + 100x47 + 100x48 + 100x49 + 100x50 + 100x51 + 100x52 + 100x53 + 100x54 + 100x55 + 100x56 + 100x57 + 100x58 + 100x59 + 100x60 + 100x61 + 100x62 - y55_57 - y36_53 - y15_30 - y26_30 - y7_26 - y18_26 - y15_39 - y17_58 - y47_62 - y18_44 - y29_41 - y40_41 - y21_37 - y11_14 - y40_50 - y21_55 - y10_36 - y33_56 - y44_56 - y2_50 - y3_15 - y2_59 - y14_24 - y22_37 - y22_46 - y14_42 - y15_16 - y15_25 - y17_53 - y28_53 - y9_49 - y17_62 - y6_34 - y21_32 - y0_9 - y48_58 - y40_54 - y21_50 - y10_49 - y44_51 - y2_54 - y14_19 - y22_32 - y3_28 - y14_28 - y13_60 - y14_37 - y16_56 - y55_56 - y28_39 - y17_57 - y6_29 - y6_38 - y40_49 - y6_56 - y54_60 - y10_35 - y2_31 - y25_33 - y3_5 - y51_54 - y2_49 - y3_23 - y43_59 - y16_51 - y1_62 - y17_34 - y7_11 - y36_47 - y9_39 - y28_52 - y9_48 - y21_22 - y29_35 - y6_42 - y21_40 - y6_51 - y39_48 - y2_8 - y39_57 - y2_17 - y43_45 - y51_58 - y24_41 - y35_41 - y32_54 - y16_37 - y1_48 - y17_20 - y5_27 - y17_29 - y28_29 - y9_25 - y9_34 - y5_54 - y6_19 - y9_52 - y6_28 - y21_26 - y50_62 - y61_62 - y6_46 - y20_39 - y10_25 - y20_57 - y4_49 - y13_27 - y4_58 - y32_40 - y32_49 - y32_58 - y24_54 - y35_54 - y1_61 - y57_60 - y5_31 - y17_33 - y28_33 - y9_29 - y5_40 - y5_49 - y9_47 - y6_32 - y8_51 - y19_60 - y30_60 - y42_62 - y11_56 - y31_34 - y12_39 - y31_61 - y4_44 - y12_57 - y13_22 - y23_57 - y32_35 - y16_18 - y32_44 - y16_27 - y1_38 - y24_40 - y1_47 - y13_49 - y5_8 - y1_56 - y35_58 - y49_60 - y27_41 - y50_52 - y8_46 - y27_59 - y11_51 - y20_29 - y20_38 - y39_51 - y12_34 - y20_56 - y31_56 - y12_52 - y23_52 - y4_48 - y23_61 - y13_26 - y24_26 - y4_57 - y16_22 - y46_50 - y5_21 - y17_23 - y15_53 - y26_53 - y5_30 - y15_62 - y27_36 - y8_32 - y19_32 - y27_54 - y11_37 - y19_50 - y8_59 - y19_59 - y42_61 - y4_25 - y20_51 - y4_34 - y31_51 - y4_43 - y23_56 - y1_19 - y13_21 - y4_52 - y13_30 - y22_60 - y1_37 - y5_7 - y15_48 - y38_50 - y15_57 - y18_53 - y27_31 - y7_62 - y8_36 - y19_36 - y42_56 - y11_50 - y12_15 - y0_59 - y23_24 - y41_60 - y20_37 - y4_20 - y52_60 - y12_33 - y4_29 - y34_39 - y34_48 - y1_23 - y56_57 - y1_32 - y15_34 - y26_43 - y46_58 - y15_52 - y7_48 - y18_48 - y0_18 - y30_31 - y0_27 - y11_27 - y19_40 - y8_49 - y20_23 - y4_6 - y0_54 - y33_51 - y12_28 - y33_60 - y25_56 - y37_39 - y14_46 - y22_59 - y45_61 - y56_61 - y3_55 - y15_20 - y37_57 - y38_40 - y7_34 - y15_47 - y15_56 - y18_52 - y48_62 - y27_39 - y19_35 - y8_44 - y0_40 - y41_50 - y4_10 - y33_46 - y44_46 - y4_19 - y25_51 - y1_4 - y22_36 - y1_13 - y22_54 - y14_50 - y14_59 - y18_20 - y18_29 - y15_42 - y7_38 - y18_38 - y7_47 - y18_47 - y0_8 - y7_56 - y8_21 - y0_17 - y40_53 - y19_30 - y6_60 - y11_26 - y21_58 - y2_44 - y25_46 - y10_57 - y2_53 - y25_55 - y22_31 - y22_40 - y34_42 - y3_36 - y37_38 - y22_58 - y15_28 - y7_24 - y18_24 - y15_37 - y36_60 - y7_33 - y0_3 - y29_39 - y29_48 - y19_25 - y11_21 - y21_62 - y10_43 - y33_45 - y44_45 - y25_41 - y52_58 - y22_26 - y14_22 - y14_40 - y22_53 - y36_46 - y15_23 - y28_51 - y9_56 - y29_43 - y21_39 - y29_52 - y40_52 - y21_48 - y21_57 - y10_29 - y33_40 - y2_34 - y33_49 - y44_49 - y2_43 - y3_8 - y22_30 - y2_61 - y32_62 - y13_58 - y14_35 - y3_44 - y14_44 - y36_41 - y15_18 - y36_50 - y47_50 - y9_42 - y28_55 - y9_51 - y0_2 - y6_45 - y40_47 - y2_20 - y54_58 - y25_31 - y2_38 - y51_52 - y2_47 - y43_48 - y2_56 - y3_21 - y32_57 - y13_53 - y13_62 - y24_62 - y17_32 - y7_9 - y47_54 - y5_48 - y5_57 - y9_55 - y6_31 - y21_29 - y29_42 - y40_42 - y29_51 - y21_47 - y10_19 - y39_55 - y2_15 - y2_33 - y25_35 - y2_42 - y13_39 - y14_25 - y32_61 - y1_55 - y13_57 - y35_57 - y17_36 - y28_36 - y9_32 - y5_43 - y5_52 - y5_61 - y21_24 - y29_37 - y21_33 - y21_42 - y31_46 - y10_23 - y39_59 - y23_51 - y2_28 - y12_60 - y4_56 - y32_38 - y13_34 - y24_34 - y1_41 - y24_43 - y1_50 - y13_52 - y35_52 - y13_61 - y16_57 - y9_18 - y5_29 - y5_38 - y17_40 - y9_54 - y50_55 - y39_45 - y31_50 - y20_59 - y4_42 - y54_61 - y13_20 - y13_29 - y4_60 - y32_42 - y13_38 - y43_51 - y35_47 - y35_56 - y16_52 - y9_13 - y16_61 - y57_62 - y36_39 - y49_58 - y28_35 - y9_31 - y6_7 - y9_40 - y5_51 - y8_53 - y0_49 - y0_58 - y39_40 - y23_32 - y2_9 - y31_45 - y31_54 - y54_56 - y1_22 - y53_60 - y4_55 - y16_20 - y16_29 - y35_51 - y38_44 - y9_17 - y38_53 - y5_28 - y6_11 - y8_48 - y19_48 - y19_57 - y30_57 - y2_4 - y4_32 - y1_8 - y4_41 - y13_19 - y13_28 - y24_28 - y1_35 - y35_37 - y38_48 - y9_21 - y15_55 - y5_32 - y26_55 - y49_57 - y18_60 - y19_43 - y30_43 - y27_56 - y8_52 - y42_54 - y0_48 - y8_61 - y19_61 - y0_57 - y20_35 - y23_31 - y20_44 - y4_36 - y13_14 - y16_19 - y46_47 - y15_50 - y7_46 - y18_46 - y15_59 - y18_55 - y27_42 - y0_25 - y8_38 - y19_47 - y30_56 - y20_21 - y0_52 - y11_52 - y23_26 - y33_58 - y23_35 - y34_41 - y53_54 - y45_50 - y1_25 - y16_23 - y37_55 - y15_45 - y15_54 - y18_50 - y8_24 - y27_37 - y11_29 - y8_42 - y30_42 - y11_38 - y60_61 - y12_21 - y25_49 - y44_62 - y34_36 - y1_11 - y22_43 - y1_20 - y37_41 - y45_54 - y3_48 - y7_18 - y26_31 - y7_27 - y18_27 - y26_40 - y18_36 - y15_49 - y8_10 - y27_32 - y0_24 - y29_60 - y30_37 - y21_56 - y40_60 - y0_42 - y4_12 - y10_46 - y33_48 - y33_57 - y44_57 - y1_6 - y2_60 - y22_38 - y34_40 - y45_49 - y45_58 - y37_54 - y15_17 - y7_13 - y3_61 - y7_22 - y59_60 - y7_49 - y19_23 - y48_59 - y29_55 - y21_51 - y41_47 - y10_41 - y52_56 - y33_61 - y22_24 - y44_61 - y2_55 - y3_20 - y22_33 - y34_35 - y14_29 - y22_42 - y34_44 - y3_38 - y22_51 - y14_47
 Subject to
C1: x0+x1 <=1 
C2: x0+x2-y0_2 <=1 
C3: x0+x3-y0_3 <=1 
C4: x0+x8-y0_8 <=1 
C5: x0+x9-y0_9 <=1 
C6: x0+x10 <=1 
C7: x0+x12 <=1 
C8: x0+x13 <=1 
C9: x0+x15 <=1 
C10: x0+x17-y0_17 <=1 
C11: x0+x18-y0_18 <=1 
C12: x0+x21 <=1 
C13: x0+x22 <=1 
C14: x0+x24-y0_24 <=1 
C15: x0+x25-y0_25 <=1 
C16: x0+x26 <=1 
C17: x0+x27-y0_27 <=1 
C18: x0+x28 <=1 
C19: x0+x32 <=1 
C20: x0+x34 <=1 
C21: x0+x36 <=1 
C22: x0+x39 <=1 
C23: x0+x40-y0_40 <=1 
C24: x0+x41 <=1 
C25: x0+x42-y0_42 <=1 
C26: x0+x45 <=1 
C27: x0+x46 <=1 
C28: x0+x47 <=1 
C29: x0+x48-y0_48 <=1 
C30: x0+x49-y0_49 <=1 
C31: x0+x50 <=1 
C32: x0+x51 <=1 
C33: x0+x52-y0_52 <=1 
C34: x0+x53 <=1 
C35: x0+x54-y0_54 <=1 
C36: x0+x56 <=1 
C37: x0+x57-y0_57 <=1 
C38: x0+x58-y0_58 <=1 
C39: x0+x59-y0_59 <=1 
C40: x0+x61 <=1 
C41: x0+x62 <=1 
C42: x1+x4-y1_4 <=1 
C43: x1+x5 <=1 
C44: x1+x6-y1_6 <=1 
C45: x1+x7 <=1 
C46: x1+x8-y1_8 <=1 
C47: x1+x9 <=1 
C48: x1+x10 <=1 
C49: x1+x11-y1_11 <=1 
C50: x1+x12 <=1 
C51: x1+x13-y1_13 <=1 
C52: x1+x17 <=1 
C53: x1+x19-y1_19 <=1 
C54: x1+x20-y1_20 <=1 
C55: x1+x21 <=1 
C56: x1+x22-y1_22 <=1 
C57: x1+x23-y1_23 <=1 
C58: x1+x25-y1_25 <=1 
C59: x1+x29 <=1 
C60: x1+x30 <=1 
C61: x1+x32-y1_32 <=1 
C62: x1+x34 <=1 
C63: x1+x35-y1_35 <=1 
C64: x1+x37-y1_37 <=1 
C65: x1+x38-y1_38 <=1 
C66: x1+x41-y1_41 <=1 
C67: x1+x46 <=1 
C68: x1+x47-y1_47 <=1 
C69: x1+x48-y1_48 <=1 
C70: x1+x50-y1_50 <=1 
C71: x1+x55-y1_55 <=1 
C72: x1+x56-y1_56 <=1 
C73: x1+x59 <=1 
C74: x1+x60 <=1 
C75: x1+x61-y1_61 <=1 
C76: x1+x62-y1_62 <=1 
C77: x2+x4-y2_4 <=1 
C78: x2+x6 <=1 
C79: x2+x7 <=1 
C80: x2+x8-y2_8 <=1 
C81: x2+x9-y2_9 <=1 
C82: x2+x13 <=1 
C83: x2+x15-y2_15 <=1 
C84: x2+x17-y2_17 <=1 
C85: x2+x18 <=1 
C86: x2+x20-y2_20 <=1 
C87: x2+x21 <=1 
C88: x2+x22 <=1 
C89: x2+x23 <=1 
C90: x2+x24 <=1 
C91: x2+x26 <=1 
C92: x2+x28-y2_28 <=1 
C93: x2+x29 <=1 
C94: x2+x30 <=1 
C95: x2+x31-y2_31 <=1 
C96: x2+x32 <=1 
C97: x2+x33-y2_33 <=1 
C98: x2+x34-y2_34 <=1 
C99: x2+x35 <=1 
C100: x2+x38-y2_38 <=1 
C101: x2+x40 <=1 
C102: x2+x41 <=1 
C103: x2+x42-y2_42 <=1 
C104: x2+x43-y2_43 <=1 
C105: x2+x44-y2_44 <=1 
C106: x2+x47-y2_47 <=1 
C107: x2+x48 <=1 
C108: x2+x49-y2_49 <=1 
C109: x2+x50-y2_50 <=1 
C110: x2+x53-y2_53 <=1 
C111: x2+x54-y2_54 <=1 
C112: x2+x55-y2_55 <=1 
C113: x2+x56-y2_56 <=1 
C114: x2+x57 <=1 
C115: x2+x59-y2_59 <=1 
C116: x2+x60-y2_60 <=1 
C117: x2+x61-y2_61 <=1 
C118: x3+x5-y3_5 <=1 
C119: x3+x8-y3_8 <=1 
C120: x3+x12 <=1 
C121: x3+x15-y3_15 <=1 
C122: x3+x20-y3_20 <=1 
C123: x3+x21-y3_21 <=1 
C124: x3+x22 <=1 
C125: x3+x23-y3_23 <=1 
C126: x3+x28-y3_28 <=1 
C127: x3+x29 <=1 
C128: x3+x34 <=1 
C129: x3+x35 <=1 
C130: x3+x36-y3_36 <=1 
C131: x3+x37 <=1 
C132: x3+x38-y3_38 <=1 
C133: x3+x39 <=1 
C134: x3+x42 <=1 
C135: x3+x43 <=1 
C136: x3+x44-y3_44 <=1 
C137: x3+x46 <=1 
C138: x3+x48-y3_48 <=1 
C139: x3+x49 <=1 
C140: x3+x50 <=1 
C141: x3+x53 <=1 
C142: x3+x55-y3_55 <=1 
C143: x3+x56 <=1 
C144: x3+x59 <=1 
C145: x3+x61-y3_61 <=1 
C146: x4+x6-y4_6 <=1 
C147: x4+x10-y4_10 <=1 
C148: x4+x11 <=1 
C149: x4+x12-y4_12 <=1 
C150: x4+x13 <=1 
C151: x4+x14 <=1 
C152: x4+x16 <=1 
C153: x4+x18 <=1 
C154: x4+x19-y4_19 <=1 
C155: x4+x20-y4_20 <=1 
C156: x4+x21 <=1 
C157: x4+x22 <=1 
C158: x4+x23 <=1 
C159: x4+x25-y4_25 <=1 
C160: x4+x26 <=1 
C161: x4+x28 <=1 
C162: x4+x29-y4_29 <=1 
C163: x4+x31 <=1 
C164: x4+x32-y4_32 <=1 
C165: x4+x34-y4_34 <=1 
C166: x4+x35 <=1 
C167: x4+x36-y4_36 <=1 
C168: x4+x41-y4_41 <=1 
C169: x4+x42-y4_42 <=1 
C170: x4+x43-y4_43 <=1 
C171: x4+x44-y4_44 <=1 
C172: x4+x48-y4_48 <=1 
C173: x4+x49-y4_49 <=1 
C174: x4+x52-y4_52 <=1 
C175: x4+x54 <=1 
C176: x4+x55-y4_55 <=1 
C177: x4+x56-y4_56 <=1 
C178: x4+x57-y4_57 <=1 
C179: x4+x58-y4_58 <=1 
C180: x4+x59 <=1 
C181: x4+x60-y4_60 <=1 
C182: x5+x6 <=1 
C183: x5+x7-y5_7 <=1 
C184: x5+x8-y5_8 <=1 
C185: x5+x9 <=1 
C186: x5+x13 <=1 
C187: x5+x14 <=1 
C188: x5+x17 <=1 
C189: x5+x18 <=1 
C190: x5+x20 <=1 
C191: x5+x21-y5_21 <=1 
C192: x5+x23 <=1 
C193: x5+x27-y5_27 <=1 
C194: x5+x28-y5_28 <=1 
C195: x5+x29-y5_29 <=1 
C196: x5+x30-y5_30 <=1 
C197: x5+x31-y5_31 <=1 
C198: x5+x32-y5_32 <=1 
C199: x5+x35 <=1 
C200: x5+x38-y5_38 <=1 
C201: x5+x40-y5_40 <=1 
C202: x5+x43-y5_43 <=1 
C203: x5+x44 <=1 
C204: x5+x45 <=1 
C205: x5+x46 <=1 
C206: x5+x48-y5_48 <=1 
C207: x5+x49-y5_49 <=1 
C208: x5+x50 <=1 
C209: x5+x51-y5_51 <=1 
C210: x5+x52-y5_52 <=1 
C211: x5+x53 <=1 
C212: x5+x54-y5_54 <=1 
C213: x5+x55 <=1 
C214: x5+x56 <=1 
C215: x5+x57-y5_57 <=1 
C216: x5+x58 <=1 
C217: x5+x59 <=1 
C218: x5+x60 <=1 
C219: x5+x61-y5_61 <=1 
C220: x5+x62 <=1 
C221: x6+x7-y6_7 <=1 
C222: x6+x8 <=1 
C223: x6+x9 <=1 
C224: x6+x10 <=1 
C225: x6+x11-y6_11 <=1 
C226: x6+x13 <=1 
C227: x6+x16 <=1 
C228: x6+x18 <=1 
C229: x6+x19-y6_19 <=1 
C230: x6+x20 <=1 
C231: x6+x22 <=1 
C232: x6+x24 <=1 
C233: x6+x27 <=1 
C234: x6+x28-y6_28 <=1 
C235: x6+x29-y6_29 <=1 
C236: x6+x30 <=1 
C237: x6+x31-y6_31 <=1 
C238: x6+x32-y6_32 <=1 
C239: x6+x33 <=1 
C240: x6+x34-y6_34 <=1 
C241: x6+x35 <=1 
C242: x6+x36 <=1 
C243: x6+x38-y6_38 <=1 
C244: x6+x39 <=1 
C245: x6+x40 <=1 
C246: x6+x42-y6_42 <=1 
C247: x6+x43 <=1 
C248: x6+x45-y6_45 <=1 
C249: x6+x46-y6_46 <=1 
C250: x6+x48 <=1 
C251: x6+x49 <=1 
C252: x6+x51-y6_51 <=1 
C253: x6+x52 <=1 
C254: x6+x53 <=1 
C255: x6+x55 <=1 
C256: x6+x56-y6_56 <=1 
C257: x6+x57 <=1 
C258: x6+x58 <=1 
C259: x6+x59 <=1 
C260: x6+x60-y6_60 <=1 
C261: x7+x8 <=1 
C262: x7+x9-y7_9 <=1 
C263: x7+x11-y7_11 <=1 
C264: x7+x13-y7_13 <=1 
C265: x7+x15 <=1 
C266: x7+x16 <=1 
C267: x7+x18-y7_18 <=1 
C268: x7+x19 <=1 
C269: x7+x20 <=1 
C270: x7+x21 <=1 
C271: x7+x22-y7_22 <=1 
C272: x7+x24-y7_24 <=1 
C273: x7+x26-y7_26 <=1 
C274: x7+x27-y7_27 <=1 
C275: x7+x30 <=1 
C276: x7+x31 <=1 
C277: x7+x33-y7_33 <=1 
C278: x7+x34-y7_34 <=1 
C279: x7+x35 <=1 
C280: x7+x36 <=1 
C281: x7+x37 <=1 
C282: x7+x38-y7_38 <=1 
C283: x7+x40 <=1 
C284: x7+x42 <=1 
C285: x7+x43 <=1 
C286: x7+x44 <=1 
C287: x7+x45 <=1 
C288: x7+x46-y7_46 <=1 
C289: x7+x47-y7_47 <=1 
C290: x7+x48-y7_48 <=1 
C291: x7+x49-y7_49 <=1 
C292: x7+x50 <=1 
C293: x7+x51 <=1 
C294: x7+x53 <=1 
C295: x7+x55 <=1 
C296: x7+x56-y7_56 <=1 
C297: x7+x57 <=1 
C298: x7+x60 <=1 
C299: x7+x61 <=1 
C300: x7+x62-y7_62 <=1 
C301: x8+x9 <=1 
C302: x8+x10-y8_10 <=1 
C303: x8+x13 <=1 
C304: x8+x15 <=1 
C305: x8+x17 <=1 
C306: x8+x18 <=1 
C307: x8+x19 <=1 
C308: x8+x21-y8_21 <=1 
C309: x8+x23 <=1 
C310: x8+x24-y8_24 <=1 
C311: x8+x27 <=1 
C312: x8+x28 <=1 
C313: x8+x29 <=1 
C314: x8+x31 <=1 
C315: x8+x32-y8_32 <=1 
C316: x8+x33 <=1 
C317: x8+x34 <=1 
C318: x8+x36-y8_36 <=1 
C319: x8+x38-y8_38 <=1 
C320: x8+x42-y8_42 <=1 
C321: x8+x43 <=1 
C322: x8+x44-y8_44 <=1 
C323: x8+x45 <=1 
C324: x8+x46-y8_46 <=1 
C325: x8+x48-y8_48 <=1 
C326: x8+x49-y8_49 <=1 
C327: x8+x51-y8_51 <=1 
C328: x8+x52-y8_52 <=1 
C329: x8+x53-y8_53 <=1 
C330: x8+x54 <=1 
C331: x8+x59-y8_59 <=1 
C332: x8+x60 <=1 
C333: x8+x61-y8_61 <=1 
C334: x9+x10 <=1 
C335: x9+x13-y9_13 <=1 
C336: x9+x14 <=1 
C337: x9+x17-y9_17 <=1 
C338: x9+x18-y9_18 <=1 
C339: x9+x19 <=1 
C340: x9+x21-y9_21 <=1 
C341: x9+x25-y9_25 <=1 
C342: x9+x27 <=1 
C343: x9+x28 <=1 
C344: x9+x29-y9_29 <=1 
C345: x9+x30 <=1 
C346: x9+x31-y9_31 <=1 
C347: x9+x32-y9_32 <=1 
C348: x9+x34-y9_34 <=1 
C349: x9+x36 <=1 
C350: x9+x37 <=1 
C351: x9+x38 <=1 
C352: x9+x39-y9_39 <=1 
C353: x9+x40-y9_40 <=1 
C354: x9+x41 <=1 
C355: x9+x42-y9_42 <=1 
C356: x9+x43 <=1 
C357: x9+x44 <=1 
C358: x9+x47-y9_47 <=1 
C359: x9+x48-y9_48 <=1 
C360: x9+x49-y9_49 <=1 
C361: x9+x51-y9_51 <=1 
C362: x9+x52-y9_52 <=1 
C363: x9+x54-y9_54 <=1 
C364: x9+x55-y9_55 <=1 
C365: x9+x56-y9_56 <=1 
C366: x9+x59 <=1 
C367: x9+x60 <=1 
C368: x9+x61 <=1 
C369: x10+x11 <=1 
C370: x10+x14 <=1 
C371: x10+x17 <=1 
C372: x10+x18 <=1 
C373: x10+x19-y10_19 <=1 
C374: x10+x23-y10_23 <=1 
C375: x10+x24 <=1 
C376: x10+x25-y10_25 <=1 
C377: x10+x26 <=1 
C378: x10+x27 <=1 
C379: x10+x28 <=1 
C380: x10+x29-y10_29 <=1 
C381: x10+x30 <=1 
C382: x10+x31 <=1 
C383: x10+x33 <=1 
C384: x10+x35-y10_35 <=1 
C385: x10+x36-y10_36 <=1 
C386: x10+x39 <=1 
C387: x10+x41-y10_41 <=1 
C388: x10+x42 <=1 
C389: x10+x43-y10_43 <=1 
C390: x10+x44 <=1 
C391: x10+x46-y10_46 <=1 
C392: x10+x47 <=1 
C393: x10+x49-y10_49 <=1 
C394: x10+x51 <=1 
C395: x10+x52 <=1 
C396: x10+x54 <=1 
C397: x10+x57-y10_57 <=1 
C398: x10+x59 <=1 
C399: x10+x60 <=1 
C400: x10+x62 <=1 
C401: x11+x12 <=1 
C402: x11+x14-y11_14 <=1 
C403: x11+x15 <=1 
C404: x11+x18 <=1 
C405: x11+x20 <=1 
C406: x11+x21-y11_21 <=1 
C407: x11+x23 <=1 
C408: x11+x24 <=1 
C409: x11+x26-y11_26 <=1 
C410: x11+x27-y11_27 <=1 
C411: x11+x28 <=1 
C412: x11+x29-y11_29 <=1 
C413: x11+x30 <=1 
C414: x11+x32 <=1 
C415: x11+x35 <=1 
C416: x11+x37-y11_37 <=1 
C417: x11+x38-y11_38 <=1 
C418: x11+x40 <=1 
C419: x11+x42 <=1 
C420: x11+x45 <=1 
C421: x11+x46 <=1 
C422: x11+x47 <=1 
C423: x11+x50-y11_50 <=1 
C424: x11+x51-y11_51 <=1 
C425: x11+x52-y11_52 <=1 
C426: x11+x53 <=1 
C427: x11+x54 <=1 
C428: x11+x56-y11_56 <=1 
C429: x11+x57 <=1 
C430: x12+x13 <=1 
C431: x12+x15-y12_15 <=1 
C432: x12+x16 <=1 
C433: x12+x21-y12_21 <=1 
C434: x12+x28-y12_28 <=1 
C435: x12+x31 <=1 
C436: x12+x32 <=1 
C437: x12+x33-y12_33 <=1 
C438: x12+x34-y12_34 <=1 
C439: x12+x37 <=1 
C440: x12+x39-y12_39 <=1 
C441: x12+x42 <=1 
C442: x12+x44 <=1 
C443: x12+x45 <=1 
C444: x12+x50 <=1 
C445: x12+x52-y12_52 <=1 
C446: x12+x53 <=1 
C447: x12+x57-y12_57 <=1 
C448: x12+x60-y12_60 <=1 
C449: x13+x14-y13_14 <=1 
C450: x13+x17 <=1 
C451: x13+x19-y13_19 <=1 
C452: x13+x20-y13_20 <=1 
C453: x13+x21-y13_21 <=1 
C454: x13+x22-y13_22 <=1 
C455: x13+x23 <=1 
C456: x13+x25 <=1 
C457: x13+x26-y13_26 <=1 
C458: x13+x27-y13_27 <=1 
C459: x13+x28-y13_28 <=1 
C460: x13+x29-y13_29 <=1 
C461: x13+x30-y13_30 <=1 
C462: x13+x31 <=1 
C463: x13+x32 <=1 
C464: x13+x34-y13_34 <=1 
C465: x13+x35 <=1 
C466: x13+x36 <=1 
C467: x13+x38-y13_38 <=1 
C468: x13+x39-y13_39 <=1 
C469: x13+x42 <=1 
C470: x13+x45 <=1 
C471: x13+x46 <=1 
C472: x13+x49-y13_49 <=1 
C473: x13+x51 <=1 
C474: x13+x52-y13_52 <=1 
C475: x13+x53-y13_53 <=1 
C476: x13+x54 <=1 
C477: x13+x56 <=1 
C478: x13+x57-y13_57 <=1 
C479: x13+x58-y13_58 <=1 
C480: x13+x60-y13_60 <=1 
C481: x13+x61-y13_61 <=1 
C482: x13+x62-y13_62 <=1 
C483: x14+x15 <=1 
C484: x14+x17 <=1 
C485: x14+x19-y14_19 <=1 
C486: x14+x20 <=1 
C487: x14+x21 <=1 
C488: x14+x22-y14_22 <=1 
C489: x14+x24-y14_24 <=1 
C490: x14+x25-y14_25 <=1 
C491: x14+x26 <=1 
C492: x14+x28-y14_28 <=1 
C493: x14+x29-y14_29 <=1 
C494: x14+x32 <=1 
C495: x14+x35-y14_35 <=1 
C496: x14+x37-y14_37 <=1 
C497: x14+x40-y14_40 <=1 
C498: x14+x41 <=1 
C499: x14+x42-y14_42 <=1 
C500: x14+x44-y14_44 <=1 
C501: x14+x46-y14_46 <=1 
C502: x14+x47-y14_47 <=1 
C503: x14+x50-y14_50 <=1 
C504: x14+x51 <=1 
C505: x14+x54 <=1 
C506: x14+x59-y14_59 <=1 
C507: x15+x16-y15_16 <=1 
C508: x15+x17-y15_17 <=1 
C509: x15+x18-y15_18 <=1 
C510: x15+x20-y15_20 <=1 
C511: x15+x21 <=1 
C512: x15+x22 <=1 
C513: x15+x23-y15_23 <=1 
C514: x15+x24 <=1 
C515: x15+x25-y15_25 <=1 
C516: x15+x28-y15_28 <=1 
C517: x15+x30-y15_30 <=1 
C518: x15+x31 <=1 
C519: x15+x33 <=1 
C520: x15+x34-y15_34 <=1 
C521: x15+x35 <=1 
C522: x15+x37-y15_37 <=1 
C523: x15+x39-y15_39 <=1 
C524: x15+x42-y15_42 <=1 
C525: x15+x45-y15_45 <=1 
C526: x15+x47-y15_47 <=1 
C527: x15+x48-y15_48 <=1 
C528: x15+x49-y15_49 <=1 
C529: x15+x50-y15_50 <=1 
C530: x15+x51 <=1 
C531: x15+x52-y15_52 <=1 
C532: x15+x53-y15_53 <=1 
C533: x15+x54-y15_54 <=1 
C534: x15+x55-y15_55 <=1 
C535: x15+x56-y15_56 <=1 
C536: x15+x57-y15_57 <=1 
C537: x15+x58 <=1 
C538: x15+x59-y15_59 <=1 
C539: x15+x61 <=1 
C540: x15+x62-y15_62 <=1 
C541: x16+x17 <=1 
C542: x16+x18-y16_18 <=1 
C543: x16+x19-y16_19 <=1 
C544: x16+x20-y16_20 <=1 
C545: x16+x21 <=1 
C546: x16+x22-y16_22 <=1 
C547: x16+x23-y16_23 <=1 
C548: x16+x24 <=1 
C549: x16+x26 <=1 
C550: x16+x27-y16_27 <=1 
C551: x16+x29-y16_29 <=1 
C552: x16+x30 <=1 
C553: x16+x31 <=1 
C554: x16+x35 <=1 
C555: x16+x37-y16_37 <=1 
C556: x16+x39 <=1 
C557: x16+x41 <=1 
C558: x16+x42 <=1 
C559: x16+x44 <=1 
C560: x16+x46 <=1 
C561: x16+x47 <=1 
C562: x16+x49 <=1 
C563: x16+x50 <=1 
C564: x16+x51-y16_51 <=1 
C565: x16+x52-y16_52 <=1 
C566: x16+x53 <=1 
C567: x16+x54 <=1 
C568: x16+x56-y16_56 <=1 
C569: x16+x57-y16_57 <=1 
C570: x16+x58 <=1 
C571: x16+x60 <=1 
C572: x16+x61-y16_61 <=1 
C573: x16+x62 <=1 
C574: x17+x19 <=1 
C575: x17+x20-y17_20 <=1 
C576: x17+x23-y17_23 <=1 
C577: x17+x28 <=1 
C578: x17+x29-y17_29 <=1 
C579: x17+x31 <=1 
C580: x17+x32-y17_32 <=1 
C581: x17+x33-y17_33 <=1 
C582: x17+x34-y17_34 <=1 
C583: x17+x36-y17_36 <=1 
C584: x17+x37 <=1 
C585: x17+x39 <=1 
C586: x17+x40-y17_40 <=1 
C587: x17+x41 <=1 
C588: x17+x43 <=1 
C589: x17+x45 <=1 
C590: x17+x50 <=1 
C591: x17+x53-y17_53 <=1 
C592: x17+x54 <=1 
C593: x17+x57-y17_57 <=1 
C594: x17+x58-y17_58 <=1 
C595: x17+x62-y17_62 <=1 
C596: x18+x20-y18_20 <=1 
C597: x18+x21 <=1 
C598: x18+x22 <=1 
C599: x18+x24-y18_24 <=1 
C600: x18+x26-y18_26 <=1 
C601: x18+x27-y18_27 <=1 
C602: x18+x28 <=1 
C603: x18+x29-y18_29 <=1 
C604: x18+x30 <=1 
C605: x18+x31 <=1 
C606: x18+x34 <=1 
C607: x18+x35 <=1 
C608: x18+x36-y18_36 <=1 
C609: x18+x38-y18_38 <=1 
C610: x18+x39 <=1 
C611: x18+x43 <=1 
C612: x18+x44-y18_44 <=1 
C613: x18+x45 <=1 
C614: x18+x46-y18_46 <=1 
C615: x18+x47-y18_47 <=1 
C616: x18+x48-y18_48 <=1 
C617: x18+x49 <=1 
C618: x18+x50-y18_50 <=1 
C619: x18+x51 <=1 
C620: x18+x52-y18_52 <=1 
C621: x18+x53-y18_53 <=1 
C622: x18+x55-y18_55 <=1 
C623: x18+x56 <=1 
C624: x18+x57 <=1 
C625: x18+x59 <=1 
C626: x18+x60-y18_60 <=1 
C627: x19+x20 <=1 
C628: x19+x21 <=1 
C629: x19+x22 <=1 
C630: x19+x23-y19_23 <=1 
C631: x19+x24 <=1 
C632: x19+x25-y19_25 <=1 
C633: x19+x26 <=1 
C634: x19+x30-y19_30 <=1 
C635: x19+x32-y19_32 <=1 
C636: x19+x33 <=1 
C637: x19+x35-y19_35 <=1 
C638: x19+x36-y19_36 <=1 
C639: x19+x37 <=1 
C640: x19+x38 <=1 
C641: x19+x39 <=1 
C642: x19+x40-y19_40 <=1 
C643: x19+x41 <=1 
C644: x19+x43-y19_43 <=1 
C645: x19+x47-y19_47 <=1 
C646: x19+x48-y19_48 <=1 
C647: x19+x49 <=1 
C648: x19+x50-y19_50 <=1 
C649: x19+x54 <=1 
C650: x19+x57-y19_57 <=1 
C651: x19+x58 <=1 
C652: x19+x59-y19_59 <=1 
C653: x19+x60-y19_60 <=1 
C654: x19+x61-y19_61 <=1 
C655: x20+x21-y20_21 <=1 
C656: x20+x22 <=1 
C657: x20+x23-y20_23 <=1 
C658: x20+x25 <=1 
C659: x20+x28 <=1 
C660: x20+x29-y20_29 <=1 
C661: x20+x30 <=1 
C662: x20+x35-y20_35 <=1 
C663: x20+x36 <=1 
C664: x20+x37-y20_37 <=1 
C665: x20+x38-y20_38 <=1 
C666: x20+x39-y20_39 <=1 
C667: x20+x40 <=1 
C668: x20+x41 <=1 
C669: x20+x44-y20_44 <=1 
C670: x20+x50 <=1 
C671: x20+x51-y20_51 <=1 
C672: x20+x52 <=1 
C673: x20+x54 <=1 
C674: x20+x56-y20_56 <=1 
C675: x20+x57-y20_57 <=1 
C676: x20+x58 <=1 
C677: x20+x59-y20_59 <=1 
C678: x20+x60 <=1 
C679: x20+x61 <=1 
C680: x21+x22-y21_22 <=1 
C681: x21+x23 <=1 
C682: x21+x24-y21_24 <=1 
C683: x21+x26-y21_26 <=1 
C684: x21+x27 <=1 
C685: x21+x29-y21_29 <=1 
C686: x21+x30 <=1 
C687: x21+x31 <=1 
C688: x21+x32-y21_32 <=1 
C689: x21+x33-y21_33 <=1 
C690: x21+x36 <=1 
C691: x21+x37-y21_37 <=1 
C692: x21+x39-y21_39 <=1 
C693: x21+x40-y21_40 <=1 
C694: x21+x41 <=1 
C695: x21+x42-y21_42 <=1 
C696: x21+x43 <=1 
C697: x21+x46 <=1 
C698: x21+x47-y21_47 <=1 
C699: x21+x48-y21_48 <=1 
C700: x21+x49 <=1 
C701: x21+x50-y21_50 <=1 
C702: x21+x51-y21_51 <=1 
C703: x21+x52 <=1 
C704: x21+x53 <=1 
C705: x21+x55-y21_55 <=1 
C706: x21+x56-y21_56 <=1 
C707: x21+x57-y21_57 <=1 
C708: x21+x58-y21_58 <=1 
C709: x21+x60 <=1 
C710: x21+x61 <=1 
C711: x21+x62-y21_62 <=1 
C712: x22+x23 <=1 
C713: x22+x24-y22_24 <=1 
C714: x22+x26-y22_26 <=1 
C715: x22+x30-y22_30 <=1 
C716: x22+x31-y22_31 <=1 
C717: x22+x32-y22_32 <=1 
C718: x22+x33-y22_33 <=1 
C719: x22+x36-y22_36 <=1 
C720: x22+x37-y22_37 <=1 
C721: x22+x38-y22_38 <=1 
C722: x22+x40-y22_40 <=1 
C723: x22+x42-y22_42 <=1 
C724: x22+x43-y22_43 <=1 
C725: x22+x45 <=1 
C726: x22+x46-y22_46 <=1 
C727: x22+x48 <=1 
C728: x22+x50 <=1 
C729: x22+x51-y22_51 <=1 
C730: x22+x53-y22_53 <=1 
C731: x22+x54-y22_54 <=1 
C732: x22+x55 <=1 
C733: x22+x56 <=1 
C734: x22+x58-y22_58 <=1 
C735: x22+x59-y22_59 <=1 
C736: x22+x60-y22_60 <=1 
C737: x22+x61 <=1 
C738: x23+x24-y23_24 <=1 
C739: x23+x26-y23_26 <=1 
C740: x23+x27 <=1 
C741: x23+x31-y23_31 <=1 
C742: x23+x32-y23_32 <=1 
C743: x23+x35-y23_35 <=1 
C744: x23+x36 <=1 
C745: x23+x37 <=1 
C746: x23+x38 <=1 
C747: x23+x40 <=1 
C748: x23+x43 <=1 
C749: x23+x45 <=1 
C750: x23+x47 <=1 
C751: x23+x48 <=1 
C752: x23+x51-y23_51 <=1 
C753: x23+x52-y23_52 <=1 
C754: x23+x53 <=1 
C755: x23+x54 <=1 
C756: x23+x56-y23_56 <=1 
C757: x23+x57-y23_57 <=1 
C758: x23+x58 <=1 
C759: x23+x61-y23_61 <=1 
C760: x24+x26-y24_26 <=1 
C761: x24+x27 <=1 
C762: x24+x28-y24_28 <=1 
C763: x24+x29 <=1 
C764: x24+x34-y24_34 <=1 
C765: x24+x35 <=1 
C766: x24+x36 <=1 
C767: x24+x39 <=1 
C768: x24+x40-y24_40 <=1 
C769: x24+x41-y24_41 <=1 
C770: x24+x43-y24_43 <=1 
C771: x24+x48 <=1 
C772: x24+x49 <=1 
C773: x24+x51 <=1 
C774: x24+x54-y24_54 <=1 
C775: x24+x56 <=1 
C776: x24+x57 <=1 
C777: x24+x58 <=1 
C778: x24+x59 <=1 
C779: x24+x60 <=1 
C780: x24+x62-y24_62 <=1 
C781: x25+x26 <=1 
C782: x25+x28 <=1 
C783: x25+x29 <=1 
C784: x25+x30 <=1 
C785: x25+x31-y25_31 <=1 
C786: x25+x32 <=1 
C787: x25+x33-y25_33 <=1 
C788: x25+x34 <=1 
C789: x25+x35-y25_35 <=1 
C790: x25+x36 <=1 
C791: x25+x37 <=1 
C792: x25+x40 <=1 
C793: x25+x41-y25_41 <=1 
C794: x25+x46-y25_46 <=1 
C795: x25+x49-y25_49 <=1 
C796: x25+x51-y25_51 <=1 
C797: x25+x54 <=1 
C798: x25+x55-y25_55 <=1 
C799: x25+x56-y25_56 <=1 
C800: x25+x58 <=1 
C801: x25+x59 <=1 
C802: x25+x60 <=1 
C803: x26+x30-y26_30 <=1 
C804: x26+x31-y26_31 <=1 
C805: x26+x34 <=1 
C806: x26+x35 <=1 
C807: x26+x37 <=1 
C808: x26+x40-y26_40 <=1 
C809: x26+x43-y26_43 <=1 
C810: x26+x44 <=1 
C811: x26+x47 <=1 
C812: x26+x48 <=1 
C813: x26+x52 <=1 
C814: x26+x53-y26_53 <=1 
C815: x26+x55-y26_55 <=1 
C816: x26+x57 <=1 
C817: x26+x59 <=1 
C818: x26+x60 <=1 
C819: x27+x28 <=1 
C820: x27+x31-y27_31 <=1 
C821: x27+x32-y27_32 <=1 
C822: x27+x33 <=1 
C823: x27+x35 <=1 
C824: x27+x36-y27_36 <=1 
C825: x27+x37-y27_37 <=1 
C826: x27+x39-y27_39 <=1 
C827: x27+x41-y27_41 <=1 
C828: x27+x42-y27_42 <=1 
C829: x27+x44 <=1 
C830: x27+x48 <=1 
C831: x27+x49 <=1 
C832: x27+x50 <=1 
C833: x27+x51 <=1 
C834: x27+x53 <=1 
C835: x27+x54-y27_54 <=1 
C836: x27+x56-y27_56 <=1 
C837: x27+x57 <=1 
C838: x27+x59-y27_59 <=1 
C839: x27+x61 <=1 
C840: x28+x29-y28_29 <=1 
C841: x28+x32 <=1 
C842: x28+x33-y28_33 <=1 
C843: x28+x34 <=1 
C844: x28+x35-y28_35 <=1 
C845: x28+x36-y28_36 <=1 
C846: x28+x38 <=1 
C847: x28+x39-y28_39 <=1 
C848: x28+x41 <=1 
C849: x28+x42 <=1 
C850: x28+x44 <=1 
C851: x28+x45 <=1 
C852: x28+x47 <=1 
C853: x28+x48 <=1 
C854: x28+x50 <=1 
C855: x28+x51-y28_51 <=1 
C856: x28+x52-y28_52 <=1 
C857: x28+x53-y28_53 <=1 
C858: x28+x55-y28_55 <=1 
C859: x28+x58 <=1 
C860: x28+x60 <=1 
C861: x28+x62 <=1 
C862: x29+x33 <=1 
C863: x29+x35-y29_35 <=1 
C864: x29+x37-y29_37 <=1 
C865: x29+x39-y29_39 <=1 
C866: x29+x41-y29_41 <=1 
C867: x29+x42-y29_42 <=1 
C868: x29+x43-y29_43 <=1 
C869: x29+x44 <=1 
C870: x29+x47 <=1 
C871: x29+x48-y29_48 <=1 
C872: x29+x51-y29_51 <=1 
C873: x29+x52-y29_52 <=1 
C874: x29+x53 <=1 
C875: x29+x54 <=1 
C876: x29+x55-y29_55 <=1 
C877: x29+x56 <=1 
C878: x29+x59 <=1 
C879: x29+x60-y29_60 <=1 
C880: x29+x61 <=1 
C881: x29+x62 <=1 
C882: x30+x31-y30_31 <=1 
C883: x30+x32 <=1 
C884: x30+x33 <=1 
C885: x30+x34 <=1 
C886: x30+x35 <=1 
C887: x30+x37-y30_37 <=1 
C888: x30+x42-y30_42 <=1 
C889: x30+x43-y30_43 <=1 
C890: x30+x46 <=1 
C891: x30+x49 <=1 
C892: x30+x51 <=1 
C893: x30+x54 <=1 
C894: x30+x56-y30_56 <=1 
C895: x30+x57-y30_57 <=1 
C896: x30+x59 <=1 
C897: x30+x60-y30_60 <=1 
C898: x30+x61 <=1 
C899: x30+x62 <=1 
C900: x31+x32 <=1 
C901: x31+x33 <=1 
C902: x31+x34-y31_34 <=1 
C903: x31+x36 <=1 
C904: x31+x39 <=1 
C905: x31+x40 <=1 
C906: x31+x42 <=1 
C907: x31+x43 <=1 
C908: x31+x45-y31_45 <=1 
C909: x31+x46-y31_46 <=1 
C910: x31+x47 <=1 
C911: x31+x49 <=1 
C912: x31+x50-y31_50 <=1 
C913: x31+x51-y31_51 <=1 
C914: x31+x54-y31_54 <=1 
C915: x31+x55 <=1 
C916: x31+x56-y31_56 <=1 
C917: x31+x61-y31_61 <=1 
C918: x32+x35-y32_35 <=1 
C919: x32+x37 <=1 
C920: x32+x38-y32_38 <=1 
C921: x32+x40-y32_40 <=1 
C922: x32+x42-y32_42 <=1 
C923: x32+x44-y32_44 <=1 
C924: x32+x47 <=1 
C925: x32+x49-y32_49 <=1 
C926: x32+x50 <=1 
C927: x32+x51 <=1 
C928: x32+x54-y32_54 <=1 
C929: x32+x57-y32_57 <=1 
C930: x32+x58-y32_58 <=1 
C931: x32+x59 <=1 
C932: x32+x61-y32_61 <=1 
C933: x32+x62-y32_62 <=1 
C934: x33+x35 <=1 
C935: x33+x40-y33_40 <=1 
C936: x33+x41 <=1 
C937: x33+x44 <=1 
C938: x33+x45-y33_45 <=1 
C939: x33+x46-y33_46 <=1 
C940: x33+x47 <=1 
C941: x33+x48-y33_48 <=1 
C942: x33+x49-y33_49 <=1 
C943: x33+x50 <=1 
C944: x33+x51-y33_51 <=1 
C945: x33+x53 <=1 
C946: x33+x55 <=1 
C947: x33+x56-y33_56 <=1 
C948: x33+x57-y33_57 <=1 
C949: x33+x58-y33_58 <=1 
C950: x33+x60-y33_60 <=1 
C951: x33+x61-y33_61 <=1 
C952: x34+x35-y34_35 <=1 
C953: x34+x36-y34_36 <=1 
C954: x34+x37 <=1 
C955: x34+x39-y34_39 <=1 
C956: x34+x40-y34_40 <=1 
C957: x34+x41-y34_41 <=1 
C958: x34+x42-y34_42 <=1 
C959: x34+x43 <=1 
C960: x34+x44-y34_44 <=1 
C961: x34+x48-y34_48 <=1 
C962: x34+x49 <=1 
C963: x34+x58 <=1 
C964: x34+x61 <=1 
C965: x35+x37-y35_37 <=1 
C966: x35+x41-y35_41 <=1 
C967: x35+x43 <=1 
C968: x35+x45 <=1 
C969: x35+x46 <=1 
C970: x35+x47-y35_47 <=1 
C971: x35+x51-y35_51 <=1 
C972: x35+x52-y35_52 <=1 
C973: x35+x54-y35_54 <=1 
C974: x35+x55 <=1 
C975: x35+x56-y35_56 <=1 
C976: x35+x57-y35_57 <=1 
C977: x35+x58-y35_58 <=1 
C978: x35+x59 <=1 
C979: x35+x60 <=1 
C980: x35+x61 <=1 
C981: x36+x38 <=1 
C982: x36+x39-y36_39 <=1 
C983: x36+x40 <=1 
C984: x36+x41-y36_41 <=1 
C985: x36+x44 <=1 
C986: x36+x46-y36_46 <=1 
C987: x36+x47-y36_47 <=1 
C988: x36+x50-y36_50 <=1 
C989: x36+x51 <=1 
C990: x36+x52 <=1 
C991: x36+x53-y36_53 <=1 
C992: x36+x55 <=1 
C993: x36+x60-y36_60 <=1 
C994: x36+x61 <=1 
C995: x37+x38-y37_38 <=1 
C996: x37+x39-y37_39 <=1 
C997: x37+x41-y37_41 <=1 
C998: x37+x44 <=1 
C999: x37+x45 <=1 
C1000: x37+x46 <=1 
C1001: x37+x49 <=1 
C1002: x37+x50 <=1 
C1003: x37+x51 <=1 
C1004: x37+x54-y37_54 <=1 
C1005: x37+x55-y37_55 <=1 
C1006: x37+x57-y37_57 <=1 
C1007: x37+x58 <=1 
C1008: x37+x60 <=1 
C1009: x38+x39 <=1 
C1010: x38+x40-y38_40 <=1 
C1011: x38+x41 <=1 
C1012: x38+x43 <=1 
C1013: x38+x44-y38_44 <=1 
C1014: x38+x46 <=1 
C1015: x38+x48-y38_48 <=1 
C1016: x38+x50-y38_50 <=1 
C1017: x38+x51 <=1 
C1018: x38+x53-y38_53 <=1 
C1019: x38+x54 <=1 
C1020: x38+x56 <=1 
C1021: x38+x58 <=1 
C1022: x38+x62 <=1 
C1023: x39+x40-y39_40 <=1 
C1024: x39+x41 <=1 
C1025: x39+x44 <=1 
C1026: x39+x45-y39_45 <=1 
C1027: x39+x46 <=1 
C1028: x39+x48-y39_48 <=1 
C1029: x39+x49 <=1 
C1030: x39+x51-y39_51 <=1 
C1031: x39+x53 <=1 
C1032: x39+x55-y39_55 <=1 
C1033: x39+x57-y39_57 <=1 
C1034: x39+x58 <=1 
C1035: x39+x59-y39_59 <=1 
C1036: x39+x61 <=1 
C1037: x40+x41-y40_41 <=1 
C1038: x40+x42-y40_42 <=1 
C1039: x40+x46 <=1 
C1040: x40+x47-y40_47 <=1 
C1041: x40+x49-y40_49 <=1 
C1042: x40+x50-y40_50 <=1 
C1043: x40+x52-y40_52 <=1 
C1044: x40+x53-y40_53 <=1 
C1045: x40+x54-y40_54 <=1 
C1046: x40+x58 <=1 
C1047: x40+x59 <=1 
C1048: x40+x60-y40_60 <=1 
C1049: x40+x61 <=1 
C1050: x41+x42 <=1 
C1051: x41+x43 <=1 
C1052: x41+x44 <=1 
C1053: x41+x45 <=1 
C1054: x41+x47-y41_47 <=1 
C1055: x41+x49 <=1 
C1056: x41+x50-y41_50 <=1 
C1057: x41+x53 <=1 
C1058: x41+x55 <=1 
C1059: x41+x59 <=1 
C1060: x41+x60-y41_60 <=1 
C1061: x41+x61 <=1 
C1062: x42+x47 <=1 
C1063: x42+x49 <=1 
C1064: x42+x52 <=1 
C1065: x42+x54-y42_54 <=1 
C1066: x42+x56-y42_56 <=1 
C1067: x42+x57 <=1 
C1068: x42+x58 <=1 
C1069: x42+x61-y42_61 <=1 
C1070: x42+x62-y42_62 <=1 
C1071: x43+x44 <=1 
C1072: x43+x45-y43_45 <=1 
C1073: x43+x48-y43_48 <=1 
C1074: x43+x49 <=1 
C1075: x43+x51-y43_51 <=1 
C1076: x43+x53 <=1 
C1077: x43+x55 <=1 
C1078: x43+x58 <=1 
C1079: x43+x59-y43_59 <=1 
C1080: x43+x60 <=1 
C1081: x43+x61 <=1 
C1082: x44+x45-y44_45 <=1 
C1083: x44+x46-y44_46 <=1 
C1084: x44+x47 <=1 
C1085: x44+x48 <=1 
C1086: x44+x49-y44_49 <=1 
C1087: x44+x51-y44_51 <=1 
C1088: x44+x53 <=1 
C1089: x44+x55 <=1 
C1090: x44+x56-y44_56 <=1 
C1091: x44+x57-y44_57 <=1 
C1092: x44+x61-y44_61 <=1 
C1093: x44+x62-y44_62 <=1 
C1094: x45+x48 <=1 
C1095: x45+x49-y45_49 <=1 
C1096: x45+x50-y45_50 <=1 
C1097: x45+x54-y45_54 <=1 
C1098: x45+x57 <=1 
C1099: x45+x58-y45_58 <=1 
C1100: x45+x61-y45_61 <=1 
C1101: x45+x62 <=1 
C1102: x46+x47-y46_47 <=1 
C1103: x46+x48 <=1 
C1104: x46+x49 <=1 
C1105: x46+x50-y46_50 <=1 
C1106: x46+x54 <=1 
C1107: x46+x55 <=1 
C1108: x46+x56 <=1 
C1109: x46+x57 <=1 
C1110: x46+x58-y46_58 <=1 
C1111: x46+x59 <=1 
C1112: x46+x60 <=1 
C1113: x46+x61 <=1 
C1114: x47+x48 <=1 
C1115: x47+x50-y47_50 <=1 
C1116: x47+x51 <=1 
C1117: x47+x52 <=1 
C1118: x47+x54-y47_54 <=1 
C1119: x47+x61 <=1 
C1120: x47+x62-y47_62 <=1 
C1121: x48+x50 <=1 
C1122: x48+x53 <=1 
C1123: x48+x54 <=1 
C1124: x48+x57 <=1 
C1125: x48+x58-y48_58 <=1 
C1126: x48+x59-y48_59 <=1 
C1127: x48+x60 <=1 
C1128: x48+x62-y48_62 <=1 
C1129: x49+x50 <=1 
C1130: x49+x52 <=1 
C1131: x49+x53 <=1 
C1132: x49+x57-y49_57 <=1 
C1133: x49+x58-y49_58 <=1 
C1134: x49+x60-y49_60 <=1 
C1135: x49+x61 <=1 
C1136: x50+x51 <=1 
C1137: x50+x52-y50_52 <=1 
C1138: x50+x55-y50_55 <=1 
C1139: x50+x58 <=1 
C1140: x50+x59 <=1 
C1141: x50+x60 <=1 
C1142: x50+x62-y50_62 <=1 
C1143: x51+x52-y51_52 <=1 
C1144: x51+x53 <=1 
C1145: x51+x54-y51_54 <=1 
C1146: x51+x55 <=1 
C1147: x51+x58-y51_58 <=1 
C1148: x51+x59 <=1 
C1149: x51+x60 <=1 
C1150: x52+x53 <=1 
C1151: x52+x56-y52_56 <=1 
C1152: x52+x58-y52_58 <=1 
C1153: x52+x59 <=1 
C1154: x52+x60-y52_60 <=1 
C1155: x52+x61 <=1 
C1156: x53+x54-y53_54 <=1 
C1157: x53+x55 <=1 
C1158: x53+x58 <=1 
C1159: x53+x60-y53_60 <=1 
C1160: x53+x61 <=1 
C1161: x53+x62 <=1 
C1162: x54+x55 <=1 
C1163: x54+x56-y54_56 <=1 
C1164: x54+x57 <=1 
C1165: x54+x58-y54_58 <=1 
C1166: x54+x60-y54_60 <=1 
C1167: x54+x61-y54_61 <=1 
C1168: x55+x56-y55_56 <=1 
C1169: x55+x57-y55_57 <=1 
C1170: x55+x59 <=1 
C1171: x55+x60 <=1 
C1172: x55+x62 <=1 
C1173: x56+x57-y56_57 <=1 
C1174: x56+x59 <=1 
C1175: x56+x61-y56_61 <=1 
C1176: x57+x60-y57_60 <=1 
C1177: x57+x61 <=1 
C1178: x57+x62-y57_62 <=1 
C1179: x58+x59 <=1 
C1180: x58+x60 <=1 
C1181: x59+x60-y59_60 <=1 
C1182: x59+x61 <=1 
C1183: x60+x61-y60_61 <=1 
C1184: x60+x62 <=1 
C1185: x61+x62-y61_62 <=1 

binary
x0
x1
x2
x3
x4
x5
x6
x7
x8
x9
x10
x11
x12
x13
x14
x15
x16
x17
x18
x19
x20
x21
x22
x23
x24
x25
x26
x27
x28
x29
x30
x31
x32
x33
x34
x35
x36
x37
x38
x39
x40
x41
x42
x43
x44
x45
x46
x47
x48
x49
x50
x51
x52
x53
x54
x55
x56
x57
x58
x59
x60
x61
x62
