problem_generation/data/GISP/train/er_n=63_m=1185_p=0.60_SET2_setparam=100.00_alpha=0.50_433.sol
objective value:                                 1262
x1                                                  1 	(obj:100)
x14                                                 1 	(obj:100)
x19                                                 1 	(obj:100)
x23                                                 1 	(obj:100)
x25                                                 1 	(obj:100)
x31                                                 1 	(obj:100)
x35                                                 1 	(obj:100)
x44                                                 1 	(obj:100)
x50                                                 1 	(obj:100)
x52                                                 1 	(obj:100)
x56                                                 1 	(obj:100)
x57                                                 1 	(obj:100)
x62                                                 1 	(obj:100)
y44_56                                              1 	(obj:-1)
y14_19                                              1 	(obj:-1)
y1_62                                               1 	(obj:-1)
y50_62                                              1 	(obj:-1)
y23_57                                              1 	(obj:-1)
y1_56                                               1 	(obj:-1)
y50_52                                              1 	(obj:-1)
y31_56                                              1 	(obj:-1)
y23_52                                              1 	(obj:-1)
y19_50                                              1 	(obj:-1)
y23_56                                              1 	(obj:-1)
y1_19                                               1 	(obj:-1)
y1_23                                               1 	(obj:-1)
y56_57                                              1 	(obj:-1)
y25_56                                              1 	(obj:-1)
y19_35                                              1 	(obj:-1)
y14_50                                              1 	(obj:-1)
y19_25                                              1 	(obj:-1)
y14_35                                              1 	(obj:-1)
y14_44                                              1 	(obj:-1)
y25_31                                              1 	(obj:-1)
y25_35                                              1 	(obj:-1)
y14_25                                              1 	(obj:-1)
y35_57                                              1 	(obj:-1)
y1_50                                               1 	(obj:-1)
y35_52                                              1 	(obj:-1)
y31_50                                              1 	(obj:-1)
y35_56                                              1 	(obj:-1)
y57_62                                              1 	(obj:-1)
y19_57                                              1 	(obj:-1)
y1_35                                               1 	(obj:-1)
y23_31                                              1 	(obj:-1)
y23_35                                              1 	(obj:-1)
y1_25                                               1 	(obj:-1)
y44_62                                              1 	(obj:-1)
y44_57                                              1 	(obj:-1)
y19_23                                              1 	(obj:-1)
y52_56                                              1 	(obj:-1)
